Total weight: 959.9584873797937
Route 1: 0 5 3 7 8 10 11 9 6 4 2 1 75 0 
Route 2: 0 13 17 18 19 15 16 14 12 0 
Route 3: 0 20 25 29 34 30 28 26 23 27 24 22 21 0 
Route 4: 0 32 33 36 39 38 37 35 31 52 49 0 
Route 5: 0 41 40 44 45 48 51 50 47 46 42 43 0 
Route 6: 0 55 54 53 56 58 60 59 57 0 
Route 7: 0 68 64 61 72 80 73 70 71 76 74 63 0 
Route 8: 0 90 87 86 83 82 78 77 79 81 0 
Route 9: 0 91 88 85 84 89 0 
Route 10: 0 98 96 95 94 92 93 97 100 99 0 
Route 11: 0 67 65 62 66 69 0 
